! ================================================================
! This file was generated by Gabedit
! ================================================================
 $SYSTEM MWORDS=20 $END
 $CONTRL RUNTYP=Energy $END
 $CONTRL SCFTYP=UHF MAXIT=99 $END
 $CONTRL  MPLEVL=2 $END
 $CONTRL ICHARG=0  MULT=3 $END
 $BASIS GBASIS=N311 NGAUSS=6 $END
 $BASIS NDFUNC=1 NPFUNC=1 $END
 $SCF DIRSCF=.TRUE. $END
 $DATA
Molecule specification
C1
O 8 0.0 0.0 0.0
 $END
