! ================================================================
! This file was generated by Gabedit
! ================================================================
 $SYSTEM MWORDS=20 $END
 $CONTRL RUNTYP=Optimize $END
 $STATPT  OptTol=1e-5 NStep=500 $END
 $CONTRL SCFTYP=UHF $END
 $CONTRL MAXIT=99 $END
 $CONTRL MPLEVL=2 $END
 $CONTRL ICHARG=0  MULT=1 $END
 $BASIS GBASIS=N311 NGAUSS=6 $END
 $BASIS NDFUNC=1 NPFUNC=1 $END
 $SCF DIRSCF=.TRUE. $END
 $DATA
Molecule specification
Td

C  6.000000 0.000000 0.000000 0.000000
H  1.000000 0.629224 0.629224 0.629224
 $END
